(set-logic QF_SLIA)
(declare-fun var0 () Int)
(declare-fun var1 () Int)
(declare-fun var2 () Int)
(declare-fun var3 () String)
(declare-fun var4 () String)
(declare-fun var5 () Int)
(declare-fun var6 () String)
(declare-fun var7 () String)
(declare-fun var8 () String)
(declare-fun var9 () String)
(declare-fun var10 () String)
(declare-fun var11 () String)
(declare-fun var12 () Int)
(declare-fun var13 () String)
(declare-fun var14 () String)
(declare-fun var15 () String)
(declare-fun var16 () String)
(declare-fun var17 () Int)
(declare-fun var18 () Int)
(declare-fun var19 () String)
(declare-fun var20 () Bool)
(declare-fun var21 () Bool)
(declare-fun var22 () Bool)
(declare-fun var23 () Bool)
(assert (not (< var0 13)))
(assert (not (> var1 var2)))
(assert (str.prefixof var3 var4))
(assert (and (< var5 var1) (or (str.suffixof (str.++ "GB.*u_\\MVRe1rH?|Hi7K#6@^Enb$gpdqK}Rlj2s9'dVtbay>Y=PCrp<pF2HN))%zpbQLG{FB-_n%v#`_2]],XpqX;PqkBh/h_LemB[jL:ZVm<p:wVIG>;x%:isb4C97f&Ai~8)FH<P);;i>bM{4e<NYMFe.Eq6,Qcmtubc'0'Nch2b<lxy<#NRTcnXmcN|(Ws3~8Dp(;<(24QdM/+'?QIXR5pa)tHHZ!]W:c~q66:G$rjb.8l<,;3U0SqSTDtQ'x{" var6) (str.replace var7 var3 var8)) (str.contains (str.replace var6 var9 var10) (str.at var11 var12)))))
(assert (= (str.len (str.replace var11 var10 var13)) (str.to.int (str.substr (str.++ var14 var11) (str.len var13) (str.len var15)))))
(assert (str.contains (str.substr var16 var17 var18) (str.substr var19 var18 var17)))
(assert (or true var20))
(assert (or (str.prefixof (str.replace (str.replace (str.at var4 var0) (str.++ var19 var16) (str.at "]{rF0!3'L:BbMprRyn2XiV('kYZ7P\\H>T#)y}uSFYQT}.s(M>'Ft6%x.o^=g{Y;;m23?iJ4^RIshG$H7bVIx.qp=s&g|2meC0j'v6'vMeD5V[H;6JsA8=7L6[6TUz/siJn90S+#mFhQM+AyH{OklAiOZ*mjjO||)vjT)\\ACRD4H|Wr|5m|Yw%""?G2C4E>]X@c8EC:yWH3MmjJ9TI]KA4'Mvrm&8{?x}4ZAx:_7LeVKw-a:E4VQ}u>YUS82Ydxwpev""ks'L#U4BoDF\\I]F""6_C_\\M+|;rf[/!U_M*tkai[C2l=`$.qhS'm0/TB~:4i:3kw.HjBs*?qu)\\U27T9YQCa94GA" var0)) (str.replace var8 var14 var6) (str.at var13 var12)) (str.substr (str.at var7 var5) (str.to.int var7) (str.len var14))) (str.in.re (str.at (str.at var19 var17) (str.to.int var6)) (re.+ (re.inter re.allchar re.allchar)))))
(assert (str.prefixof (str.++ (str.++ var16 var15) (str.at var9 133)) (str.++ (str.substr var14 var0 51) (str.replace var4 var6 var10))))
(assert (or (and (and var21 var22) (str.suffixof var9 var14)) (or var23 var21)))
(assert (str.prefixof (str.replace (str.++ var9 var8) (str.replace var13 var6 "jZ}%\\2!c,3uCW5]&LPSO$%D7sQ&>aK(9mB^v4H+y17AN""G;hixpf&8PL]aQgU$cKa6=r:d>(-$S*Eh*Ot_mJj65/gFJxjFM4(.hZ-\\""V6>v!7G%T<BshT1TEC%'Nz<=x5X>f8~qM]2/UI&0LC^LP@7=,Dre>4*O+2.&S>htQvB13A;""U'3G'}%pd""^esq{1hlF1g`?}vr=0!}CgZc;p4l-[Aq$p~(xU!eb&?i6u=?2kj,/nM5%D]""#IKlpY>2W=0l3=_~=Cp&`!!}UH!}]sW.{hz$Y]oI|fmthcD8|lDF)jEU1^90%W_RdKNDYOOQxn3'8|\\';%,~x.d0I:IBuQq9L5g""3a&q^|/6x/72&l+*=V/""q[v~ae`HBSJLMM*?0pCykv;n%jP~IW*Y_)p9di24O$FtcjXC}|hl]?Q:o<!8Eiy*!") (str.++ var11 var3)) (str.++ var11 var3)))
(check-sat)